; benchmark generated from python API
(set-info :status unknown)
(declare-datatypes ((RealState 0)) (((RMk1 (rval1 Real)) (RMk2 (rval2 Real)))))
 (assert
 (forall ((|v11:0| Real) )(forall ((|v10:1| Real) )(forall ((|v9:2| Real) )(forall ((|v8:3| Real) )(exists ((|v7:4_st| RealState) (val!4464 Real) )(exists ((|v6:5_st| RealState) (val!4465 Real) )(exists ((|v5:6_st| RealState) (val!4466 Real) )(exists ((|v4:7_st| RealState) (val!4467 Real) )(forall ((|v3:8| Real) )(forall ((|v2:9| Real) )(forall ((|v1:10| Real) )(forall ((|v0:11| Real) )(let ((?x2648 (- 8.0)))
 (let ((?x2946 (- 12.0)))
 (let ((?x1054 (* ?x2946 |v10:1|)))
 (let ((?x3004 (+ (+ (+ (* 9.0 |v9:2|) (* (- 7.0) |v9:2|)) (* (- 16.0) |v9:2|)) ?x1054)))
 (let ((?x2112 (* 4.0 |v8:3|)))
 (let ((?x1709 (- 16.0)))
 (let ((?x3190 (* ?x1709 |v1:10|)))
 (let (($x2335 (<= (+ (+ (+ (* (- 19.0) |v9:2|) (* 10.0 (rval2 |v5:6_st|))) ?x3190) ?x2112) 20.0)))
 (let ((?x1993 (+ (+ (+ (* 16.0 |v10:1|) (* 19.0 |v1:10|)) (* (- 4.0) |v11:0|)) (* (- 19.0) |v8:3|))))
 (let ((?x1642 (- 18.0)))
 (let ((?x3211 (* ?x1642 |v2:9|)))
 (let ((?x2751 (+ (+ (* (- 1.0) |v9:2|) (* (- 17.0) |v1:10|)) (* 18.0 (rval2 |v6:5_st|)))))
 (let (($x2285 (or (or (<= (+ ?x2751 ?x3211) ?x1642) (<= ?x1993 ?x2648)) (and $x2335 (<= ?x3004 ?x2648)))))
 (let ((?x1920 (* 2.0 |v11:0|)))
 (let ((?x2382 (+ (+ (+ (* 17.0 (rval2 |v5:6_st|)) (* (- 3.0) (rval2 |v6:5_st|))) ?x1920) (* 16.0 (rval2 |v6:5_st|)))))
 (let ((?x592 (+ (+ (+ (* 15.0 |v2:9|) (* 2.0 |v10:1|)) (* (- 11.0) (rval2 |v7:4_st|))) (* ?x1642 |v10:1|))))
 (let ((?x1774 (- 11.0)))
 (let ((?x2216 (+ (+ (+ (* (- 9.0) |v9:2|) (* 5.0 |v11:0|)) (* ?x2946 (rval2 |v7:4_st|))) (* 13.0 |v8:3|))))
 (let ((?x1634 (+ (+ (* 10.0 (rval2 |v6:5_st|)) (* ?x2648 (rval2 |v4:7_st|))) (* 0.0 |v8:3|))))
 (let (($x2028 (and (<= (+ ?x1634 (* (- 9.0) (rval2 |v5:6_st|))) 13.0) (<= ?x2216 ?x1774))))
 (let ((?x961 (- 2.0)))
 (let ((?x3082 (+ (+ (+ (* 16.0 |v3:8|) (* 6.0 (rval2 |v5:6_st|))) (* 0.0 |v0:11|)) (* (- 10.0) (rval2 |v6:5_st|)))))
 (let ((?x229 (* 0.0 |v3:8|)))
 (let ((?x3143 (+ (+ (* (- 14.0) (rval2 |v7:4_st|)) (* 5.0 |v0:11|)) (* (- 5.0) (rval2 |v5:6_st|)))))
 (let ((?x977 (- 6.0)))
 (let ((?x423 (+ (+ (* ?x977 |v8:3|) (* (- 9.0) |v9:2|)) (* (- 15.0) (rval2 |v7:4_st|)))))
 (let (($x2467 (or (<= (+ ?x423 (* 17.0 |v11:0|)) ?x977) (or (<= (+ ?x3143 ?x229) 8.0) (<= ?x3082 ?x961)))))
 (let ((?x3037 (* (- 20.0) |v3:8|)))
 (let ((?x1584 (+ (+ (* ?x1774 (rval2 |v6:5_st|)) (* 7.0 (rval2 |v5:6_st|))) (* (- 10.0) (rval2 |v5:6_st|)))))
 (let ((?x2098 (+ (+ (+ (* ?x977 (rval2 |v6:5_st|)) (* 0.0 |v1:10|)) (* 13.0 |v3:8|)) (* (- 7.0) (rval2 |v7:4_st|)))))
 (let ((?x2261 (* ?x1774 |v0:11|)))
 (let (($x2250 (<= (+ (+ (+ (* (- 19.0) |v10:1|) (* 4.0 |v1:10|)) (* ?x1774 |v2:9|)) ?x2261) ?x961)))
 (let ((?x130 (* 2.0 |v10:1|)))
 (let (($x3160 (<= (+ (+ (+ ?x2112 (* 13.0 |v3:8|)) (* 3.0 (rval2 |v5:6_st|))) ?x130) ?x2946)))
 (let (($x1283 (and (and $x3160 $x2250) (or (<= ?x2098 15.0) (<= (+ ?x1584 ?x3037) 6.0)))))
 (let (($x2481 (and (and $x1283 $x2467) (and (and $x2028 (and (<= ?x592 4.0) (<= ?x2382 11.0))) $x2285))))
 (let ((?x641 (+ (+ (+ (* (- 4.0) |v1:10|) (* 10.0 |v10:1|)) (* 13.0 |v9:2|)) (* (- 19.0) |v11:0|))))
 (let ((?x887 (* 4.0 |v3:8|)))
 (let ((?x2072 (- 14.0)))
 (let ((?x1509 (* ?x2072 |v1:10|)))
 (let (($x1884 (<= (+ (+ (+ (* 18.0 |v0:11|) (* (- 1.0) (rval2 |v6:5_st|))) ?x1509) ?x887) 10.0)))
 (let ((?x2503 (- 3.0)))
 (let ((?x1325 (+ (+ (+ (* (- 17.0) (rval2 |v6:5_st|)) ?x3190) (* 20.0 (rval2 |v5:6_st|))) (* 13.0 (rval2 |v5:6_st|)))))
 (let ((?x1477 (- 5.0)))
 (let ((?x1013 (* 9.0 |v1:10|)))
 (let ((?x348 (+ (+ (+ (* 11.0 (rval2 |v6:5_st|)) (* 11.0 |v2:9|)) (* (- 17.0) |v1:10|)) ?x1013)))
 (let ((?x796 (* 14.0 |v2:9|)))
 (let ((?x1834 (+ (+ (+ (* ?x977 |v11:0|) (* 0.0 |v10:1|)) (* ?x1709 (rval2 |v7:4_st|))) ?x796)))
 (let ((?x496 (- 19.0)))
 (let ((?x191 (+ (+ (* ?x2648 |v3:8|) (* (- 13.0) (rval2 |v4:7_st|))) (* 13.0 (rval2 |v4:7_st|)))))
 (let ((?x2572 (- 4.0)))
 (let ((?x1425 (* ?x2572 |v0:11|)))
 (let (($x253 (<= (+ (+ (+ (* ?x1477 |v8:3|) (* (- 13.0) |v10:1|)) (* ?x2648 |v11:0|)) ?x1425) ?x1774)))
 (let ((?x760 (rval2 |v7:4_st|)))
 (let ((?x2159 (* 13.0 ?x760)))
 (let (($x2276 (<= (+ (+ (+ (* (- 15.0) |v2:9|) (* 4.0 |v0:11|)) (* ?x2946 |v8:3|)) ?x2159) ?x2572)))
 (let (($x337 (or (or $x2276 $x253) (and (<= (+ ?x191 (* 17.0 |v10:1|)) ?x496) (<= ?x1834 3.0)))))
 (let (($x744 (or $x337 (or (and (<= ?x348 ?x1477) (<= ?x1325 ?x2503)) (or $x1884 (<= ?x641 ?x961))))))
 (let ((?x1429 (* 12.0 |v3:8|)))
 (let ((?x54 (+ (+ (+ (* ?x2503 (rval2 |v5:6_st|)) (* 14.0 |v8:3|)) (* 7.0 ?x760)) ?x1429)))
 (let ((?x505 (+ (+ (+ (* ?x2072 |v3:8|) (* ?x2946 ?x760)) (* 18.0 |v8:3|)) (* (- 10.0) |v8:3|))))
 (let ((?x2955 (rval2 |v5:6_st|)))
 (let ((?x2625 (* ?x1642 ?x2955)))
 (let (($x135 (<= (+ (+ (+ ?x2261 (* 6.0 |v9:2|)) (* ?x1774 (rval2 |v4:7_st|))) ?x2625) ?x1709)))
 (let ((?x902 (+ (+ (+ (* ?x1774 |v9:2|) (* ?x2572 |v10:1|)) (* 3.0 (rval2 |v4:7_st|))) (* (- 13.0) |v11:0|))))
 (let (($x3128 (and (and (<= ?x902 17.0) $x135) (or (<= ?x505 16.0) (<= ?x54 9.0)))))
 (let ((?x1415 (- 15.0)))
 (let ((?x234 (+ (+ (+ (* ?x2946 |v3:8|) (* 16.0 ?x760)) (* (- 9.0) (rval2 |v4:7_st|))) (* 20.0 |v10:1|))))
 (let ((?x3039 (+ (+ (+ (* (- 1.0) |v10:1|) (* 0.0 |v11:0|)) (* 13.0 |v0:11|)) (* 12.0 |v11:0|))))
 (let ((?x2749 (- 17.0)))
 (let ((?x1369 (* ?x2749 |v9:2|)))
 (let (($x2826 (<= (+ (+ (+ (* 3.0 |v11:0|) (* 14.0 |v9:2|)) (* ?x2946 ?x760)) ?x1369) 3.0)))
 (let ((?x1189 (+ (+ (+ (* 16.0 |v8:3|) (* 10.0 |v0:11|)) (* ?x2503 ?x760)) (* (- 7.0) (rval2 |v4:7_st|)))))
 (let (($x643 (<= (+ (+ (+ ?x2159 (* 0.0 |v2:9|)) (* (- 10.0) |v0:11|)) (* ?x2072 |v3:8|)) 14.0)))
 (let ((?x66 (* ?x2648 |v1:10|)))
 (let ((?x358 (+ (+ (+ (* 19.0 |v2:9|) (* ?x961 |v9:2|)) (* (- 9.0) (rval2 |v4:7_st|))) ?x66)))
 (let ((?x2320 (* 3.0 |v0:11|)))
 (let (($x480 (<= (+ (+ (+ (* 13.0 |v10:1|) (* (- 1.0) |v2:9|)) (* ?x2572 ?x760)) ?x2320) ?x2946)))
 (let (($x2317 (<= (+ (+ (+ ?x796 ?x130) (* 5.0 (rval2 |v4:7_st|))) (* 14.0 ?x2955)) 7.0)))
 (let ((?x1094 (* 9.0 |v8:3|)))
 (let (($x2067 (<= (+ (+ (+ (* 19.0 |v2:9|) (* ?x977 ?x2955)) (* ?x496 |v0:11|)) ?x1094) 18.0)))
 (let (($x1787 (or (and (and $x2067 $x2317) (and $x480 (<= ?x358 4.0))) (or (and $x643 (<= ?x1189 ?x2072)) (and $x2826 (<= ?x3039 ?x961))))))
 (let (($x292 (<= (+ (+ (+ (* 3.0 |v10:1|) (* 3.0 ?x2955)) ?x1369) (* ?x1709 |v0:11|)) 12.0)))
 (let ((?x1581 (* 19.0 |v0:11|)))
 (let (($x2902 (<= (+ (+ (+ (* 18.0 ?x760) (* ?x1642 |v3:8|)) (* 14.0 |v11:0|)) ?x1581) ?x2648)))
 (let (($x1966 (<= (+ (+ (+ ?x1013 (* ?x1709 |v3:8|)) (* ?x2072 |v3:8|)) (* (- 1.0) |v11:0|)) ?x1477)))
 (let ((?x919 (* 19.0 |v2:9|)))
 (let (($x2087 (<= (+ (+ (+ (* 11.0 |v0:11|) (* (- 1.0) |v0:11|)) (* ?x2749 ?x760)) ?x919) ?x977)))
 (let ((?x2387 (- 1.0)))
 (let ((?x1051 (+ (+ (+ (* ?x2503 |v3:8|) (* 4.0 |v2:9|)) (* 19.0 |v3:8|)) (* ?x2503 |v2:9|))))
 (let (($x389 (<= ?x1051 ?x2387)))
 (let ((?x2096 (- 10.0)))
 (let ((?x1002 (* ?x2946 |v0:11|)))
 (let ((?x2564 (+ (+ (+ (* ?x1642 |v1:10|) (* 19.0 (rval2 |v4:7_st|))) (* ?x2648 (rval2 |v6:5_st|))) ?x1002)))
 (let ((?x567 (* ?x2096 |v2:9|)))
 (let (($x2148 (<= (+ (+ (+ (* ?x2096 |v3:8|) (* 6.0 ?x2955)) (* ?x1477 |v11:0|)) ?x567) 13.0)))
 (let ((?x1398 (+ (+ (+ (* 13.0 |v9:2|) (* (- 7.0) |v11:0|)) (* ?x2749 |v2:9|)) (* 4.0 ?x2955))))
 (let (($x1946 (and (or (and (<= ?x1398 19.0) $x2148) (or (<= ?x2564 ?x2096) $x389)) (and (or $x2087 $x1966) (and $x2902 $x292)))))
 (let ((?x915 (+ (+ (+ (* ?x961 |v3:8|) (* ?x1709 |v11:0|)) (* ?x1642 |v1:10|)) (* 19.0 (rval2 |v6:5_st|)))))
 (let ((?x1181 (* 12.0 |v1:10|)))
 (let (($x2104 (<= (+ (+ (+ (* 3.0 (rval2 |v4:7_st|)) (* 20.0 ?x760)) ?x1181) ?x1181) 5.0)))
 (let ((?x1231 (+ (+ (+ (* (- 7.0) |v0:11|) (* 4.0 ?x760)) (* ?x1774 |v1:10|)) (* 6.0 (rval2 |v6:5_st|)))))
 (let ((?x1319 (- 13.0)))
 (let ((?x387 (* ?x1319 |v0:11|)))
 (let (($x1843 (<= (+ (+ (+ (rval2 |v6:5_st|) (* 14.0 |v1:10|)) (* ?x1319 |v9:2|)) |v1:10|) ?x2572)))
 (let (($x2326 (and $x1843 (<= (+ (+ (+ (* 5.0 |v0:11|) |v8:3|) (* 18.0 |v10:1|)) ?x387) 8.0))))
 (let ((?x1719 (* 18.0 |v2:9|)))
 (let (($x1661 (<= (+ (+ (+ (* 7.0 ?x760) (* 20.0 ?x2955)) (* 8.0 |v2:9|)) ?x1719) ?x1319)))
 (let ((?x265 (+ (+ (+ (* 11.0 |v8:3|) (* ?x2503 |v11:0|)) (* 4.0 ?x760)) (* ?x2648 |v9:2|))))
 (let (($x610 (<= (+ (+ (+ ?x2625 (* ?x1642 |v0:11|)) (* (- 9.0) |v3:8|)) (* 10.0 |v10:1|)) ?x1709)))
 (let (($x1789 (and (<= (+ (+ (+ |v2:9| (* 5.0 |v1:10|)) ?x1054) (* 15.0 |v8:3|)) ?x1477) $x610)))
 (let (($x1888 (and (and $x1789 (and (<= ?x265 9.0) $x1661)) (or $x2326 (or (<= ?x1231 2.0) $x2104)))))
 (let (($x1340 (or (or (and $x1888 (<= ?x915 15.0)) (and $x1946 $x1787)) (or (or (and (<= ?x234 ?x1415) $x3128) $x744) $x2481))))
 (let (($x3027 (not (= |v4:7_st| (RMk1 val!4467)))))
 (let (($x820 (not (= |v5:6_st| (RMk1 val!4466)))))
 (let (($x1286 (not (= |v6:5_st| (RMk1 val!4465)))))
 (let (($x2483 (not (= |v7:4_st| (RMk1 val!4464)))))
 (and $x2483 $x1286 $x820 $x3027 $x1340)))))))))))))))))))))))))))))))))))))))))))))))))))))))))))))))))))))))))))))))))))))))))))))))))))))))))))))))))))))))
 )
 )
 )
 )
 )
 )
 )
 )
 )
 )
 )
 )
(check-sat)
